p cnf 153 693
-1 -2 0
-1 -3 0
-1 -4 0
-1 -5 0
-1 -6 0
-1 -7 0
-1 -8 0
-1 -9 0
-2 -3 0
-2 -4 0
-2 -5 0
-2 -6 0
-2 -7 0
-2 -8 0
-2 -9 0
-3 -4 0
-3 -5 0
-3 -6 0
-3 -7 0
-3 -8 0
-3 -9 0
-4 -5 0
-4 -6 0
-4 -7 0
-4 -8 0
-4 -9 0
-5 -6 0
-5 -7 0
-5 -8 0
-5 -9 0
-6 -7 0
-6 -8 0
-6 -9 0
-7 -8 0
-7 -9 0
-8 -9 0
-10 -11 0
-10 -12 0
-10 -13 0
-10 -14 0
-10 -15 0
-10 -16 0
-10 -17 0
-10 -18 0
-11 -12 0
-11 -13 0
-11 -14 0
-11 -15 0
-11 -16 0
-11 -17 0
-11 -18 0
-12 -13 0
-12 -14 0
-12 -15 0
-12 -16 0
-12 -17 0
-12 -18 0
-13 -14 0
-13 -15 0
-13 -16 0
-13 -17 0
-13 -18 0
-14 -15 0
-14 -16 0
-14 -17 0
-14 -18 0
-15 -16 0
-15 -17 0
-15 -18 0
-16 -17 0
-16 -18 0
-17 -18 0
-19 -20 0
-19 -21 0
-19 -22 0
-19 -23 0
-19 -24 0
-19 -25 0
-19 -26 0
-19 -27 0
-20 -21 0
-20 -22 0
-20 -23 0
-20 -24 0
-20 -25 0
-20 -26 0
-20 -27 0
-21 -22 0
-21 -23 0
-21 -24 0
-21 -25 0
-21 -26 0
-21 -27 0
-22 -23 0
-22 -24 0
-22 -25 0
-22 -26 0
-22 -27 0
-23 -24 0
-23 -25 0
-23 -26 0
-23 -27 0
-24 -25 0
-24 -26 0
-24 -27 0
-25 -26 0
-25 -27 0
-26 -27 0
-28 -29 0
-28 -30 0
-28 -31 0
-28 -32 0
-28 -33 0
-28 -34 0
-28 -35 0
-28 -36 0
-29 -30 0
-29 -31 0
-29 -32 0
-29 -33 0
-29 -34 0
-29 -35 0
-29 -36 0
-30 -31 0
-30 -32 0
-30 -33 0
-30 -34 0
-30 -35 0
-30 -36 0
-31 -32 0
-31 -33 0
-31 -34 0
-31 -35 0
-31 -36 0
-32 -33 0
-32 -34 0
-32 -35 0
-32 -36 0
-33 -34 0
-33 -35 0
-33 -36 0
-34 -35 0
-34 -36 0
-35 -36 0
-37 -38 0
-37 -39 0
-37 -40 0
-37 -41 0
-37 -42 0
-37 -43 0
-37 -44 0
-37 -45 0
-38 -39 0
-38 -40 0
-38 -41 0
-38 -42 0
-38 -43 0
-38 -44 0
-38 -45 0
-39 -40 0
-39 -41 0
-39 -42 0
-39 -43 0
-39 -44 0
-39 -45 0
-40 -41 0
-40 -42 0
-40 -43 0
-40 -44 0
-40 -45 0
-41 -42 0
-41 -43 0
-41 -44 0
-41 -45 0
-42 -43 0
-42 -44 0
-42 -45 0
-43 -44 0
-43 -45 0
-44 -45 0
-46 -47 0
-46 -48 0
-46 -49 0
-46 -50 0
-46 -51 0
-46 -52 0
-46 -53 0
-46 -54 0
-47 -48 0
-47 -49 0
-47 -50 0
-47 -51 0
-47 -52 0
-47 -53 0
-47 -54 0
-48 -49 0
-48 -50 0
-48 -51 0
-48 -52 0
-48 -53 0
-48 -54 0
-49 -50 0
-49 -51 0
-49 -52 0
-49 -53 0
-49 -54 0
-50 -51 0
-50 -52 0
-50 -53 0
-50 -54 0
-51 -52 0
-51 -53 0
-51 -54 0
-52 -53 0
-52 -54 0
-53 -54 0
-55 -56 0
-55 -57 0
-55 -58 0
-55 -59 0
-55 -60 0
-55 -61 0
-55 -62 0
-55 -63 0
-56 -57 0
-56 -58 0
-56 -59 0
-56 -60 0
-56 -61 0
-56 -62 0
-56 -63 0
-57 -58 0
-57 -59 0
-57 -60 0
-57 -61 0
-57 -62 0
-57 -63 0
-58 -59 0
-58 -60 0
-58 -61 0
-58 -62 0
-58 -63 0
-59 -60 0
-59 -61 0
-59 -62 0
-59 -63 0
-60 -61 0
-60 -62 0
-60 -63 0
-61 -62 0
-61 -63 0
-62 -63 0
-64 -65 0
-64 -66 0
-64 -67 0
-64 -68 0
-64 -69 0
-64 -70 0
-64 -71 0
-64 -72 0
-65 -66 0
-65 -67 0
-65 -68 0
-65 -69 0
-65 -70 0
-65 -71 0
-65 -72 0
-66 -67 0
-66 -68 0
-66 -69 0
-66 -70 0
-66 -71 0
-66 -72 0
-67 -68 0
-67 -69 0
-67 -70 0
-67 -71 0
-67 -72 0
-68 -69 0
-68 -70 0
-68 -71 0
-68 -72 0
-69 -70 0
-69 -71 0
-69 -72 0
-70 -71 0
-70 -72 0
-71 -72 0
-73 -74 0
-73 -75 0
-73 -76 0
-73 -77 0
-73 -78 0
-73 -79 0
-73 -80 0
-73 -81 0
-74 -75 0
-74 -76 0
-74 -77 0
-74 -78 0
-74 -79 0
-74 -80 0
-74 -81 0
-75 -76 0
-75 -77 0
-75 -78 0
-75 -79 0
-75 -80 0
-75 -81 0
-76 -77 0
-76 -78 0
-76 -79 0
-76 -80 0
-76 -81 0
-77 -78 0
-77 -79 0
-77 -80 0
-77 -81 0
-78 -79 0
-78 -80 0
-78 -81 0
-79 -80 0
-79 -81 0
-80 -81 0
-82 -83 0
-82 -84 0
-82 -85 0
-82 -86 0
-82 -87 0
-82 -88 0
-82 -89 0
-82 -90 0
-83 -84 0
-83 -85 0
-83 -86 0
-83 -87 0
-83 -88 0
-83 -89 0
-83 -90 0
-84 -85 0
-84 -86 0
-84 -87 0
-84 -88 0
-84 -89 0
-84 -90 0
-85 -86 0
-85 -87 0
-85 -88 0
-85 -89 0
-85 -90 0
-86 -87 0
-86 -88 0
-86 -89 0
-86 -90 0
-87 -88 0
-87 -89 0
-87 -90 0
-88 -89 0
-88 -90 0
-89 -90 0
-91 -92 0
-91 -93 0
-91 -94 0
-91 -95 0
-91 -96 0
-91 -97 0
-91 -98 0
-91 -99 0
-92 -93 0
-92 -94 0
-92 -95 0
-92 -96 0
-92 -97 0
-92 -98 0
-92 -99 0
-93 -94 0
-93 -95 0
-93 -96 0
-93 -97 0
-93 -98 0
-93 -99 0
-94 -95 0
-94 -96 0
-94 -97 0
-94 -98 0
-94 -99 0
-95 -96 0
-95 -97 0
-95 -98 0
-95 -99 0
-96 -97 0
-96 -98 0
-96 -99 0
-97 -98 0
-97 -99 0
-98 -99 0
-100 -101 0
-100 -102 0
-100 -103 0
-100 -104 0
-100 -105 0
-100 -106 0
-100 -107 0
-100 -108 0
-101 -102 0
-101 -103 0
-101 -104 0
-101 -105 0
-101 -106 0
-101 -107 0
-101 -108 0
-102 -103 0
-102 -104 0
-102 -105 0
-102 -106 0
-102 -107 0
-102 -108 0
-103 -104 0
-103 -105 0
-103 -106 0
-103 -107 0
-103 -108 0
-104 -105 0
-104 -106 0
-104 -107 0
-104 -108 0
-105 -106 0
-105 -107 0
-105 -108 0
-106 -107 0
-106 -108 0
-107 -108 0
-109 -110 0
-109 -111 0
-109 -112 0
-109 -113 0
-109 -114 0
-109 -115 0
-109 -116 0
-109 -117 0
-110 -111 0
-110 -112 0
-110 -113 0
-110 -114 0
-110 -115 0
-110 -116 0
-110 -117 0
-111 -112 0
-111 -113 0
-111 -114 0
-111 -115 0
-111 -116 0
-111 -117 0
-112 -113 0
-112 -114 0
-112 -115 0
-112 -116 0
-112 -117 0
-113 -114 0
-113 -115 0
-113 -116 0
-113 -117 0
-114 -115 0
-114 -116 0
-114 -117 0
-115 -116 0
-115 -117 0
-116 -117 0
-118 -119 0
-118 -120 0
-118 -121 0
-118 -122 0
-118 -123 0
-118 -124 0
-118 -125 0
-118 -126 0
-119 -120 0
-119 -121 0
-119 -122 0
-119 -123 0
-119 -124 0
-119 -125 0
-119 -126 0
-120 -121 0
-120 -122 0
-120 -123 0
-120 -124 0
-120 -125 0
-120 -126 0
-121 -122 0
-121 -123 0
-121 -124 0
-121 -125 0
-121 -126 0
-122 -123 0
-122 -124 0
-122 -125 0
-122 -126 0
-123 -124 0
-123 -125 0
-123 -126 0
-124 -125 0
-124 -126 0
-125 -126 0
-127 -128 0
-127 -129 0
-127 -130 0
-127 -131 0
-127 -132 0
-127 -133 0
-127 -134 0
-127 -135 0
-128 -129 0
-128 -130 0
-128 -131 0
-128 -132 0
-128 -133 0
-128 -134 0
-128 -135 0
-129 -130 0
-129 -131 0
-129 -132 0
-129 -133 0
-129 -134 0
-129 -135 0
-130 -131 0
-130 -132 0
-130 -133 0
-130 -134 0
-130 -135 0
-131 -132 0
-131 -133 0
-131 -134 0
-131 -135 0
-132 -133 0
-132 -134 0
-132 -135 0
-133 -134 0
-133 -135 0
-134 -135 0
-136 -137 0
-136 -138 0
-136 -139 0
-136 -140 0
-136 -141 0
-136 -142 0
-136 -143 0
-136 -144 0
-137 -138 0
-137 -139 0
-137 -140 0
-137 -141 0
-137 -142 0
-137 -143 0
-137 -144 0
-138 -139 0
-138 -140 0
-138 -141 0
-138 -142 0
-138 -143 0
-138 -144 0
-139 -140 0
-139 -141 0
-139 -142 0
-139 -143 0
-139 -144 0
-140 -141 0
-140 -142 0
-140 -143 0
-140 -144 0
-141 -142 0
-141 -143 0
-141 -144 0
-142 -143 0
-142 -144 0
-143 -144 0
-145 -146 0
-145 -147 0
-145 -148 0
-145 -149 0
-145 -150 0
-145 -151 0
-145 -152 0
-145 -153 0
-146 -147 0
-146 -148 0
-146 -149 0
-146 -150 0
-146 -151 0
-146 -152 0
-146 -153 0
-147 -148 0
-147 -149 0
-147 -150 0
-147 -151 0
-147 -152 0
-147 -153 0
-148 -149 0
-148 -150 0
-148 -151 0
-148 -152 0
-148 -153 0
-149 -150 0
-149 -151 0
-149 -152 0
-149 -153 0
-150 -151 0
-150 -152 0
-150 -153 0
-151 -152 0
-151 -153 0
-152 -153 0
1 10 19 28 37 46 55 64 73 82 91 100 109 118 127 136 145 0
2 11 20 29 38 47 56 65 74 83 92 101 110 119 128 137 146 0
3 12 21 30 39 48 57 66 75 84 93 102 111 120 129 138 147 0
4 13 22 31 40 49 58 67 76 85 94 103 112 121 130 139 148 0
5 14 23 32 41 50 59 68 77 86 95 104 113 122 131 140 149 0
6 15 24 33 42 51 60 69 78 87 96 105 114 123 132 141 150 0
7 16 25 34 43 52 61 70 79 88 97 106 115 124 133 142 151 0
8 17 26 35 44 53 62 71 80 89 98 107 116 125 134 143 152 0
9 18 27 36 45 54 63 72 81 90 99 108 117 126 135 144 153 0
1 18 26 34 42 50 58 66 74 82 99 107 115 123 131 139 147 0
2 10 27 35 43 51 59 67 75 83 91 108 116 124 132 140 148 0
3 11 19 36 44 52 60 68 76 84 92 100 117 125 133 141 149 0
4 12 20 28 45 53 61 69 77 85 93 101 109 126 134 142 150 0
5 13 21 29 37 54 62 70 78 86 94 102 110 118 135 143 151 0
6 14 22 30 38 46 63 71 79 87 95 103 111 119 127 144 152 0
7 15 23 31 39 47 55 72 80 88 96 104 112 120 128 136 153 0
8 16 24 32 40 48 56 64 81 89 97 105 113 121 129 137 145 0
9 17 25 33 41 49 57 65 73 90 98 106 114 122 130 138 146 0
1 17 24 31 38 54 61 68 75 82 98 105 112 119 135 142 149 0
2 18 25 32 39 46 62 69 76 83 99 106 113 120 127 143 150 0
3 10 26 33 40 47 63 70 77 84 91 107 114 121 128 144 151 0
4 11 27 34 41 48 55 71 78 85 92 108 115 122 129 136 152 0
5 12 19 35 42 49 56 72 79 86 93 100 116 123 130 137 153 0
6 13 20 36 43 50 57 64 80 87 94 101 117 124 131 138 145 0
7 14 21 28 44 51 58 65 81 88 95 102 109 125 132 139 146 0
8 15 22 29 45 52 59 66 73 89 96 103 110 126 133 140 147 0
9 16 23 30 37 53 60 67 74 90 97 104 111 118 134 141 148 0
1 16 22 28 43 49 55 70 76 82 97 103 109 124 130 136 151 0
2 17 23 29 44 50 56 71 77 83 98 104 110 125 131 137 152 0
3 18 24 30 45 51 57 72 78 84 99 105 111 126 132 138 153 0
4 10 25 31 37 52 58 64 79 85 91 106 112 118 133 139 145 0
5 11 26 32 38 53 59 65 80 86 92 107 113 119 134 140 146 0
6 12 27 33 39 54 60 66 81 87 93 108 114 120 135 141 147 0
7 13 19 34 40 46 61 67 73 88 94 100 115 121 127 142 148 0
8 14 20 35 41 47 62 68 74 89 95 101 116 122 128 143 149 0
9 15 21 36 42 48 63 69 75 90 96 102 117 123 129 144 150 0
1 15 20 34 39 53 58 72 77 82 96 101 115 120 134 139 153 0
2 16 21 35 40 54 59 64 78 83 97 102 116 121 135 140 145 0
3 17 22 36 41 46 60 65 79 84 98 103 117 122 127 141 146 0
4 18 23 28 42 47 61 66 80 85 99 104 109 123 128 142 147 0
5 10 24 29 43 48 62 67 81 86 91 105 110 124 129 143 148 0
6 11 25 30 44 49 63 68 73 87 92 106 111 125 130 144 149 0
7 12 26 31 45 50 55 69 74 88 93 107 112 126 131 136 150 0
8 13 27 32 37 51 56 70 75 89 94 108 113 118 132 137 151 0
9 14 19 33 38 52 57 71 76 90 95 100 114 119 133 138 152 0
1 14 27 31 44 48 61 65 78 82 95 108 112 125 129 142 146 0
2 15 19 32 45 49 62 66 79 83 96 100 113 126 130 143 147 0
3 16 20 33 37 50 63 67 80 84 97 101 114 118 131 144 148 0
4 17 21 34 38 51 55 68 81 85 98 102 115 119 132 136 149 0
5 18 22 35 39 52 56 69 73 86 99 103 116 120 133 137 150 0
6 10 23 36 40 53 57 70 74 87 91 104 117 121 134 138 151 0
7 11 24 28 41 54 58 71 75 88 92 105 109 122 135 139 152 0
8 12 25 29 42 46 59 72 76 89 93 106 110 123 127 140 153 0
9 13 26 30 43 47 60 64 77 90 94 107 111 124 128 141 145 0
1 13 25 28 40 52 55 67 79 82 94 106 109 121 133 136 148 0
2 14 26 29 41 53 56 68 80 83 95 107 110 122 134 137 149 0
3 15 27 30 42 54 57 69 81 84 96 108 111 123 135 138 150 0
4 16 19 31 43 46 58 70 73 85 97 100 112 124 127 139 151 0
5 17 20 32 44 47 59 71 74 86 98 101 113 125 128 140 152 0
6 18 21 33 45 48 60 72 75 87 99 102 114 126 129 141 153 0
7 10 22 34 37 49 61 64 76 88 91 103 115 118 130 142 145 0
8 11 23 35 38 50 62 65 77 89 92 104 116 119 131 143 146 0
9 12 24 36 39 51 63 66 78 90 93 105 117 120 132 144 147 0
1 12 23 34 45 47 58 69 80 82 93 104 115 126 128 139 150 0
2 13 24 35 37 48 59 70 81 83 94 105 116 118 129 140 151 0
3 14 25 36 38 49 60 71 73 84 95 106 117 119 130 141 152 0
4 15 26 28 39 50 61 72 74 85 96 107 109 120 131 142 153 0
5 16 27 29 40 51 62 64 75 86 97 108 110 121 132 143 145 0
6 17 19 30 41 52 63 65 76 87 98 100 111 122 133 144 146 0
7 18 20 31 42 53 55 66 77 88 99 101 112 123 134 136 147 0
8 10 21 32 43 54 56 67 78 89 91 102 113 124 135 137 148 0
9 11 22 33 44 46 57 68 79 90 92 103 114 125 127 138 149 0
1 11 21 31 41 51 61 71 81 82 92 102 112 122 132 142 152 0
2 12 22 32 42 52 62 72 73 83 93 103 113 123 133 143 153 0
3 13 23 33 43 53 63 64 74 84 94 104 114 124 134 144 145 0
4 14 24 34 44 54 55 65 75 85 95 105 115 125 135 136 146 0
5 15 25 35 45 46 56 66 76 86 96 106 116 126 127 137 147 0
6 16 26 36 37 47 57 67 77 87 97 107 117 118 128 138 148 0
7 17 27 28 38 48 58 68 78 88 98 108 109 119 129 139 149 0
8 18 19 29 39 49 59 69 79 89 99 100 110 120 130 140 150 0
9 10 20 30 40 50 60 70 80 90 91 101 111 121 131 141 151 0
